(set-info :Origin "This instance was generated by: BanditFuzz-- an RL fuzzer for SMT solvers" )
(set-info :Author "Joe Scott, Fed Mora, Vijay Ganesh" )
(set-info :Contact "Joe Scott, joseph.scott@uwaterloo.ca")
(set-logic QF_BV)
(declare-const bool_0 Bool)
(declare-const bool_1 Bool)
(declare-const bool_2 Bool)
(declare-const bool_3 Bool)
(declare-const bool_4 Bool)
(declare-const bv_0 (_ BitVec 32))
(declare-const bv_1 (_ BitVec 32))
(declare-const bv_2 (_ BitVec 32))
(declare-const bv_3 (_ BitVec 32))
(declare-const bv_4 (_ BitVec 32))
(assert (bvuge (bvsub (bvadd bv_3 #x08aa3404 ) (bvshl #xd99ea198  bv_0)) (bvsrem (bvor #x519f6cd4  bv_0) (bvsub #xd39d716e  bv_3))))
(assert (bvule (bvmul (bvand bv_1 #x19b3962f ) (bvxor #xc16aacc6  bv_0)) (bvlshr (bvxor #x43cee452  bv_1) (bvsub bv_0 #xec329660 ))))
(assert (bvuge (bvudiv (bvsdiv #x62f4d098  #x7b384b2d ) (bvashr bv_4 #xcde5ac21 )) (bvsub (bvsrem bv_3 bv_2) (bvshl bv_4 bv_1))))
(assert (bvslt (bvxor (bvnor bv_3 bv_2) (bvxor #x4d304068  bv_3)) (bvxnor (bvashr #x4f9a6652  bv_2) (bvsdiv bv_0 #x3e6f3d99 ))))
(assert (bvsge (bvmul (bvor bv_0 #x46104163 ) (bvxnor #xa2e043d0  bv_4)) (bvsdiv (bvudiv #xbdf382ff  bv_4) (bvsmod bv_4 bv_1))))
(check-sat)
(exit)
